
Gurobi 11.0.3 (mac64[x86]) logging started Fri Apr 11 15:17:00 2025

Set parameter LogFile to value "Results/Conservative_experiment/sanity_check_v41_none.log"
Set parameter TimeLimit to value 84600
Set parameter Method to value 2
Set parameter Crossover to value 0
Set parameter BarHomogeneous to value 1
Set parameter BarConvTol to value 1e-10
Gurobi Optimizer version 11.0.3 build v11.0.3rc0 (mac64[x86] - Darwin 23.4.0 23E214)

CPU model: Intel(R) Core(TM) i7-1060NG7 CPU @ 1.20GHz
Thread count: 4 physical cores, 8 logical processors, using up to 8 threads

Optimize a model with 1494624 rows, 1917920 columns and 7072112 nonzeros
Model fingerprint: 0x5e2f2901
Coefficient statistics:
  Matrix range     [2e-01, 1e+00]
  Objective range  [6e-05, 5e+00]
  Bounds range     [0e+00, 0e+00]
  RHS range        [2e+00, 1e+03]
Presolve removed 1188048 rows and 1267312 columns (presolve time = 5s) ...
Presolve removed 1232448 rows and 1427136 columns
Presolve time: 7.47s
Presolved: 262176 rows, 490784 columns, 1744288 nonzeros
Ordering time: 0.00s

Barrier statistics:
 AA' NZ     : 3.826e+03
 Factor NZ  : 1.241e+04 (roughly 1 MB of memory)
 Factor Ops : 1.673e+05 (less than 1 second per iteration)
 Threads    : 1

                  Objective                Residual
Iter       Primal          Dual         Primal    Dual     Compl     Time
   0   8.68478206e+04  1.19514005e+07  3.71e+01 6.97e+03  2.11e+05     8s
   1  -7.04062524e+04  6.53656039e+06  3.85e+00 2.65e+03  2.50e+04     8s
   2  -4.76866195e+04  1.21874771e+06  1.69e-14 6.75e+01  9.91e+02     8s
   3  -3.45809242e+04  2.90058393e+04  1.51e-14 1.16e+00  3.17e+01     8s
   4  -2.45039794e+03  6.07323832e+03  1.56e-12 5.87e-02  3.53e+00     8s
   5   2.25599188e+03  4.32580689e+03  4.64e-13 4.64e-03  8.08e-01     8s
   6   3.21619479e+03  3.93709632e+03  1.12e-12 1.99e-03  2.82e-01     8s
   7   3.42453498e+03  3.72142039e+03  2.12e-12 7.41e-04  1.16e-01     8s
   8   3.53256529e+03  3.63791306e+03  2.37e-12 1.66e-04  4.07e-02     8s
   9   3.58792549e+03  3.60891844e+03  1.76e-12 4.00e-14  7.90e-03     8s
  10   3.60038189e+03  3.60411558e+03  9.18e-13 3.81e-14  1.35e-03     8s
  11   3.60275774e+03  3.60328855e+03  2.33e-12 8.09e-06  1.90e-04     8s
  12   3.60307028e+03  3.60312853e+03  1.06e-11 1.59e-06  2.10e-05     8s
  13   3.60309384e+03  3.60309660e+03  1.26e-10 7.70e-08  1.00e-06     8s
  14   3.60309500e+03  3.60309500e+03  6.91e-14 4.64e-11  4.88e-10     8s
  15   3.60309500e+03  3.60309500e+03  4.91e-14 4.37e-12  4.24e-12     8s

Barrier solved model in 15 iterations and 7.73 seconds (3.38 work units)
Optimal objective 3.60309500e+03

